c status 111 1469398397662
c status 71 1469398397804
c status 58 1469398397874
c status 55 1469398397922
c status 53 1469398397932
c status 52 1469398397979
c status 51 1469398399064
s td 512 51 800
b 1 14 2 790 58 202 69
b 2 668 2 790 58 1 113 80
b 3 2 790 58 224 1 113 80 202 69 446
b 4 158 236 502 58 80 347
b 5 236 502 58 80 347 391 202
b 6 502 58 80 347 680 786 391 202
b 7 58 224 1 113 80 347 680 786 391 202 69 446
b 8 125 136 147 557 113 269
b 9 136 147 102 557 113 269 258
b 10 225 291 424 147 80 347
b 11 469 546 291 424 713
b 12 546 291 424 757 780 713
b 13 291 424 147 80 347 580 269 757 780 713
b 14 147 102 557 113 80 347 580 269 258 757 780 713
b 15 47 335 779 102 557 191 91
b 16 335 779 102 557 224 1 191 91
b 17 102 557 224 1 113 80 347 580 269 258 191 91 757 780 713
b 18 224 1 113 80 347 580 269 258 191 91 114 757 780 713 680 786 391 202 69 446 3
b 19 613 413 558 783 646
b 20 413 180 558 435 783 646 402 114
b 21 180 213 558 435 783 646 402 91 114
b 22 213 558 435 783 646 402 358 191 91 114
b 23 602 635 691 558 435 783
b 24 782 635 691 491 788 53
b 25 635 691 558 435 783 491 788 53
b 26 558 435 783 646 402 358 191 91 114 491 788 53
b 27 435 783 646 402 358 191 91 114 3 491 788 53
b 28 8 95 4 86 402 83 42 791
b 29 95 4 86 402 83 42 791 123
b 30 787 781 4 796 50 783
b 31 781 4 796 50 783 646
b 32 4 796 50 86 783 646 402 83 42 791 123
b 33 73 71 54 127 82 50
b 34 7 54 796 50 783
b 35 54 127 82 796 50 783 153 53 94
b 36 127 82 796 50 783 153 155 53 94
b 37 82 796 50 86 783 153 155 53 94
b 38 796 50 86 783 646 402 83 42 791 153 155 123 53 94
b 39 783 646 402 83 42 791 358 191 91 114 153 155 123 3 491 788 53 94
b 40 657 569 458 51 798 791 358
b 41 569 458 51 798 624 791 358
b 42 247 458 358 258 191
b 43 458 51 798 624 524 791 358 258 191
b 44 44 84 88 51 63 21 798
b 45 89 106 84 105 63
b 46 106 84 105 63 117 166
b 47 84 88 51 105 63 21 798 117 166
b 48 70 62 88 51 83 138
b 49 62 88 51 83 42 138
b 50 88 51 105 63 21 798 83 42 138 117 166
b 51 51 105 63 21 798 624 524 83 42 791 358 258 191 138 117 166
b 52 447 591 793 524 269 258
b 53 792 789 793 6
b 54 591 789 793 524 580 269 258
b 55 789 793 6 524 580 269 258 757
b 56 793 6 17 624 524 580 269 258 757
b 57 18 30 37 17 21 798 624
b 58 30 37 77 17 63 21 798 624
b 59 76 92 37 77 6 17 87 38
b 60 92 37 77 6 17 105 167 87 38 178
b 61 37 77 6 17 105 63 21 798 624 167 87 38 178
b 62 6 17 105 63 21 798 624 524 580 269 258 167 87 38 757 178
b 63 105 63 21 798 624 524 83 42 791 358 580 269 258 191 167 87 38 757 138 117 166 178
b 64 83 42 791 358 580 269 258 191 91 114 167 87 38 757 153 155 123 138 117 166 178 3 491 788 53 94
b 65 580 269 258 191 91 114 167 87 38 757 780 713 680 153 155 123 138 117 166 178 786 391 202 69 446 3 491 788 53 94
b 66 52 61 28 55
b 67 74 61 55 133 135 78
b 68 61 23 28 55 133 135 78
b 69 23 12 28 55 133 135 78 19
b 70 12 28 55 133 135 78 19 9 780 713
b 71 40 39 800 28 55 112 60
b 72 39 800 28 55 112 60 22
b 73 800 28 55 112 60 22 780
b 74 28 55 112 133 60 22 135 78 19 9 780 713
b 75 194 174 196 133 192 135
b 76 129 174 112 133 175 115
b 77 174 244 196 112 133 220 175 115 192 135
b 78 244 196 112 133 283 220 175 115 263 242 192 135
b 79 112 133 283 220 175 115 60 22 263 242 192 135 78 19 9 780 713
b 80 33 107 96 60 22 38 757
b 81 165 190 107 222 175 115
b 82 190 107 204 184 222 175 115
b 83 107 204 184 111 96 222 175 115 60 22 38 757
b 84 118 144 184 111 96
b 85 151 156 188 144 96 167 87
b 86 156 188 144 184 96 167 87 235
b 87 188 144 184 96 167 87 197 235
b 88 144 184 111 96 167 87 197 235
b 89 204 184 111 96 222 175 115 60 22 38 757 238
b 90 184 111 96 222 175 115 60 22 167 87 38 757 197 235 238
b 91 361 362 409 353
b 92 362 294 283 409 353 367 445
b 93 294 276 283 409 353 320 367 445
b 94 276 222 283 220 409 353 320 367 445
b 95 222 283 220 175 115 60 22 409 353 167 87 38 757 197 235 238 320 367 445
b 96 283 220 175 115 60 22 409 353 263 242 192 135 78 19 9 167 87 38 757 780 713 197 235 238 320 367 445
b 97 20 26 65 19 9
b 98 26 65 32 19 9
b 99 65 32 43 85 78 19 9
b 100 29 34 32 43 680 45 799
b 101 32 43 85 78 19 9 680 45 799
b 102 240 259 219 285 255
b 103 259 248 219 285 255 264
b 104 248 214 219 285 255 264 229
b 105 214 209 219 148 285 255 264 229
b 106 209 154 219 148 285 255 264 229
b 107 154 120 219 148 285 255 171 122 264 229
b 108 120 219 148 116 43 285 255 171 122 264 229
b 109 119 141 134 116 85
b 110 141 143 134 219 148 116 85
b 111 121 146 134 85 135 78
b 112 146 143 134 85 239 192 135 78
b 113 143 134 219 148 116 85 255 239 192 135 78
b 114 219 148 116 43 85 285 255 239 192 135 78 171 122 264 229
b 115 43 85 285 255 239 192 135 78 19 9 680 171 122 45 799 264 229
b 116 310 395 405 293 285 255 360
b 117 395 405 293 421 388 285 255 360
b 118 488 405 518 421 470 533
b 119 405 293 518 421 388 285 255 360 470 533
b 120 274 377 293 255 239 263 242
b 121 377 293 388 400 255 239 353 263 242
b 122 293 518 421 388 400 285 255 239 353 263 242 360 470 533
b 123 417 416 474 481 388 400
b 124 416 474 481 388 400 409 445 490
b 125 523 579 474 481 518 545
b 126 579 474 481 518 545 595 603
b 127 474 481 518 421 388 400 409 445 490 545 595 603
b 128 518 421 388 400 285 255 239 409 353 263 242 445 490 545 360 470 533 595 603
b 129 285 255 239 409 353 263 242 192 135 78 19 9 680 445 490 545 171 122 45 799 264 360 470 533 595 603 229
b 130 409 353 263 242 192 135 78 19 9 167 87 38 757 780 713 680 197 235 238 320 367 445 490 545 171 122 45 799 264 360 470 533 595 603 229
b 131 167 87 38 757 780 713 680 153 155 123 138 117 166 178 197 235 238 320 367 445 490 545 171 122 45 799 786 391 202 69 446 3 491 788 53 94 264 360 470 533 595 603 229
b 132 189 210 179 257 166 178
b 133 210 179 216 257 166 178
b 134 161 250 179 251 186 138 117
b 135 250 179 251 288 266 186 138 117
b 136 179 251 216 257 288 266 186 138 117 166 178
b 137 251 216 257 295 288 266 186 138 117 166 178
b 138 303 304 257 376 299
b 139 304 308 257 387 376 299
b 140 308 277 257 387 334 376 299
b 141 277 216 257 387 334 312 295 376 299
b 142 216 257 387 334 312 295 288 266 186 376 299 138 117 166 178
b 143 257 387 334 312 295 288 266 186 376 299 138 117 166 178 197
b 144 327 306 404 334 312 295
b 145 306 404 339 334 312 295 288
b 146 443 404 387 460 522 471
b 147 404 339 387 334 312 295 288 411 460 522 471
b 148 332 331 346 344 301 266
b 149 357 331 346 339 389 411
b 150 331 346 339 288 344 301 266 389 411
b 151 339 387 334 312 295 288 344 301 266 389 411 460 522 471
b 152 387 334 312 295 288 344 301 266 186 389 411 460 522 471 376 299 138 117 166 178 197
b 153 193 211 198 164 186 123 138
b 154 211 268 198 164 301 266 186 123 138
b 155 200 227 164 270 237 153 155
b 156 227 268 198 164 289 278 270 237 153 155
b 157 268 198 164 289 278 270 237 301 266 186 153 155 123 138
b 158 185 195 237 153 94 201
b 159 195 243 237 153 94 201
b 160 271 281 243 333 270 237
b 161 281 292 243 333 329 270 237
b 162 292 253 243 333 329 270 237 267 325
b 163 253 243 333 329 270 237 201 267 325
b 164 243 333 329 270 237 153 94 201 267 325
b 165 342 349 359 333 278 270
b 166 393 359 401 289 278 344 468 434
b 167 349 359 401 333 329 278 270 497 351
b 168 359 401 333 329 289 278 270 344 468 434 497 351
b 169 401 333 329 289 278 270 344 468 434 505 497 351
b 170 333 329 289 278 270 237 344 468 434 153 94 201 267 325 505 497 351
b 171 289 278 270 237 344 301 266 186 468 434 153 155 123 138 94 201 267 325 505 497 351
b 172 344 301 266 186 468 434 389 411 460 522 471 376 299 153 155 123 138 117 166 178 197 94 201 267 325 505 497 351
b 173 482 472 508 510 473 389 411
b 174 472 508 510 473 389 411 460 526
b 175 589 508 510 642 615 541 611
b 176 508 510 642 615 541 473 389 411 460 611 526
b 177 641 639 658 670 630 615
b 178 639 658 670 623 630 615 656
b 179 672 658 670 682 698
b 180 649 658 642 662
b 181 658 670 642 623 630 615 682 662 698 656
b 182 642 623 630 615 541 473 389 411 460 682 662 611 526 698 656
b 183 456 507 467 496 473 434 389
b 184 507 467 496 514 473 434 389
b 185 487 504 467 496 527 468
b 186 504 467 496 527 468 573 505
b 187 467 496 527 514 473 468 434 389 573 505
b 188 607 571 623 610 573
b 189 571 554 527 623 630 615 610 573
b 190 554 527 514 623 630 615 541 610 573
b 191 527 514 623 630 615 541 473 468 434 389 610 573 505
b 192 623 630 615 541 473 468 434 389 411 460 682 662 611 526 698 656 610 573 505
b 193 468 434 389 411 460 682 662 611 526 522 471 376 299 153 155 123 138 117 166 178 197 94 201 267 325 698 656 610 573 505 497 351
b 194 322 337 350 376 299 235
b 195 282 378 337 383 235 238 320
b 196 378 337 430 390 459 383 235 238 320
b 197 337 430 390 350 459 383 376 299 235 238 320
b 198 408 444 449 430 390 350 376
b 199 484 444 449 512 563 552 471
b 200 444 449 512 430 390 350 563 552 471 376
b 201 449 512 430 390 350 459 563 552 471 376
b 202 543 559 564 512 519 459 588 563
b 203 559 564 512 519 459 583 588 563
b 204 564 512 519 459 583 594 588 563
b 205 512 430 390 350 519 459 583 594 588 563 552 471 376
b 206 430 390 350 519 459 383 583 594 588 563 552 471 376 299 235 238 320
b 207 385 392 397 383 320 367
b 208 392 428 397 383 320 367
b 209 406 453 457 428 397 383
b 210 453 457 428 397 511 459 383
b 211 457 428 397 511 478 459 383
b 212 428 397 511 478 459 383 320 367 445
b 213 534 538 511 478 519 583
b 214 538 498 511 478 519 553 605 583
b 215 498 489 511 478 519 553 605 583 490
b 216 489 511 478 519 553 605 583 445 490
b 217 511 478 519 459 383 553 605 583 320 367 445 490
b 218 519 459 383 553 605 583 594 588 563 552 471 376 299 235 238 320 367 445 490
b 219 679 622 684 730 682 662
b 220 622 612 629 684 730 682 662 611
b 221 612 578 629 684 730 682 662 611
b 222 578 631 629 684 730 552 682 662 611 526 522
b 223 665 655 684 697 664
b 224 640 655 631 629 684
b 225 655 599 631 629 684 697 664
b 226 599 587 631 629 684 697 664 638 588 563
b 227 587 631 629 684 697 664 638 588 563 552
b 228 631 629 684 730 697 664 638 588 563 552 682 662 611 526 522
b 229 601 637 645 638 583 594
b 230 637 645 654 638 583 594
b 231 643 645 626 671 675 605 583
b 232 645 626 671 675 654 638 605 583 594
b 233 634 614 644 626 553
b 234 614 644 626 553 545 603 667
b 235 674 644 626 671 676 667 715
b 236 644 626 671 676 553 545 603 667 715
b 237 626 671 676 675 654 638 553 605 583 594 545 603 667 715
b 238 714 700 747 676 675 715 752
b 239 743 738 747 730 772 756
b 240 738 721 747 730 772 756
b 241 721 700 747 730 697 772 756
b 242 659 700 654 664 638
b 243 700 747 676 675 654 730 697 664 638 715 752 772 756
b 244 676 675 654 730 697 664 638 553 605 583 594 545 603 667 715 752 772 756
b 245 730 697 664 638 553 605 583 594 588 563 552 682 662 611 526 522 545 603 667 715 752 772 756
b 246 553 605 583 594 588 563 552 682 662 611 526 522 471 376 299 235 238 320 367 445 490 545 603 667 715 752 772 756
b 247 682 662 611 526 522 471 376 299 153 155 123 138 117 166 178 197 235 238 320 367 445 490 545 94 201 267 325 603 667 715 752 772 756 698 656 610 573 505 497 351
b 248 153 155 123 138 117 166 178 197 235 238 320 367 445 490 545 171 122 45 799 786 391 202 69 446 3 491 788 53 94 201 267 325 264 360 470 533 595 603 667 715 752 772 756 698 656 610 573 505 497 229 351
b 249 369 302 724 784 336 25
b 250 302 36 724 324 784 336 25
b 251 36 724 324 784 336 25 446 3
b 252 13 27 724 784 16
b 253 27 5 724 784 16 79 90 24
b 254 5 702 724 784 16 79 90 24 788
b 255 702 724 324 784 16 79 90 24 491 788
b 256 724 324 784 336 25 16 79 90 24 446 3 491 788
b 257 169 313 280 336 25 202 69
b 258 380 313 280 480 535 336
b 259 313 280 480 535 336 25 513 391 202 69
b 260 797 794 784 336 35 31
b 261 794 795 535 784 336 10 35 31
b 262 795 768 535 784 336 10 35 31 785 46
b 263 768 480 535 784 336 10 35 31 513 785 46
b 264 480 535 784 336 25 10 35 31 513 785 46 391 202 69
b 265 784 336 25 10 35 31 16 513 785 46 79 90 24 391 202 69 446 3 491 788
b 266 72 101 100 10 35 46 64
b 267 101 100 173 10 35 46 64 67
b 268 103 93 56 100 187 35 31 170 126
b 269 93 56 100 187 35 31 16 170 126 109
b 270 100 187 173 10 35 31 16 46 64 67 170 126 109
b 271 217 230 273 173 207 246
b 272 228 230 273 208 252 173
b 273 230 273 208 252 173 207 246
b 274 273 208 252 173 207 316 315 246
b 275 265 262 252 316
b 276 262 206 252 275 316
b 277 206 208 252 187 275 260 316
b 278 208 252 187 173 207 275 260 316 315 246
b 279 187 173 10 35 31 16 46 64 67 207 275 260 170 126 109 316 315 246
b 280 10 35 31 16 513 785 46 64 67 207 275 260 170 126 109 79 90 24 316 315 246 391 202 69 446 3 491 788
b 281 68 59 11 108 81 57
b 282 59 48 11 108 81 57
b 283 48 41 11 15 108 81 57
b 284 41 11 15 108 81 57 45 799
b 285 746 669 735 11 15 786
b 286 669 735 11 15 513 786 391
b 287 735 11 15 513 785 786 391
b 288 11 15 108 81 57 49 513 785 45 799 786 391
b 289 131 142 137 108 122 45
b 290 142 137 108 205 171 122 45
b 291 132 137 108 150 205
b 292 137 108 150 205 171 122 45
b 293 108 150 81 57 49 513 785 205 171 122 45 799 786 391
b 294 145 124 157 183 150 81
b 295 124 75 157 183 150 81 67 207
b 296 75 66 157 183 150 81 57 49 67 207
b 297 66 157 183 150 81 57 49 46 64 67 207
b 298 203 215 223 212 157 150 205
b 299 233 215 223 212 284 287
b 300 215 223 212 157 150 284 287 205
b 301 245 218 232 212 183 246 284
b 302 218 232 212 183 207 246 284
b 303 212 157 183 150 207 246 284 287 205
b 304 157 183 150 81 57 49 46 64 67 207 246 284 287 205
b 305 150 81 57 49 513 785 46 64 67 207 246 284 287 205 171 122 45 799 786 391
b 306 513 785 46 64 67 207 275 260 170 126 109 79 90 24 316 315 246 284 287 205 171 122 45 799 786 391 202 69 446 3 491 788
b 307 98 99 104 79 90
b 308 99 104 149 79 90
b 309 104 149 152 109 79 90
b 310 160 176 149 234 199 152
b 311 176 177 149 234 199 152
b 312 177 163 149 234 199 152 298
b 313 163 149 130 182 234 199 152 298 261
b 314 149 130 182 234 199 152 298 261 109 79 90
b 315 97 110 128 130 90 24 788 53
b 316 139 140 162 110 94 201
b 317 172 140 162 128 130 182
b 318 140 162 110 128 130 182 94 201
b 319 110 128 130 182 90 24 788 53 94 201
b 320 130 182 234 199 152 298 261 109 79 90 24 788 53 94 201
b 321 182 234 199 152 298 261 109 79 90 24 788 53 94 201 267
b 322 168 159 226 170 126
b 323 256 231 226 317 323 254 260
b 324 231 181 159 226 317 323 254 241 260
b 325 181 159 226 317 323 254 241 199 152 260
b 326 159 226 317 323 254 241 199 152 260 170 126 109
b 327 375 356 398 323 448
b 328 345 356 328 373 341
b 329 356 328 317 398 323 448 373 341
b 330 317 398 323 254 241 199 152 275 260 170 126 109 448 373 341
b 331 340 297 348 398 323 436
b 332 297 279 290 348 398 323 436
b 333 279 272 290 348 398 323 254 436
b 334 272 290 348 398 323 254 241 436
b 335 309 319 290 348 241 234 386 363
b 336 319 290 348 241 234 386 363 298
b 337 290 348 398 323 254 241 234 436 386 363 298
b 338 441 437 398 436 485 448
b 339 437 439 398 436 485 448
b 340 398 323 254 241 234 199 152 436 386 363 298 275 260 170 126 109 485 448 373 341
b 341 234 199 152 436 386 363 298 261 275 260 170 126 109 79 90 24 485 448 373 341 788 53 94 201 267
b 342 307 321 338 261 267 325
b 343 321 338 370 414 363 298 261 267 325
b 344 338 354 370 414 363 298 261 267 325
b 345 396 412 407 354 325 351
b 346 420 450 412 407 451 370
b 347 450 412 407 451 370 509 497
b 348 412 407 451 354 370 509 325 497 351
b 349 475 525 542 451 370 499 414 509
b 350 532 525 542 537
b 351 525 542 451 370 537 499 414 509
b 352 542 451 370 537 499 414 509 562
b 353 451 354 370 537 499 414 509 562 325 497 351
b 354 354 370 537 499 414 363 298 261 509 562 267 325 497 351
b 355 410 452 461 438 414 386 363
b 356 452 461 438 499 414 386 363
b 357 465 466 495 438 436 485
b 358 466 495 461 438 436 485
b 359 495 461 438 540 436 565 485
b 360 461 438 540 499 414 436 386 363 565 485
b 361 551 570 537 499 562 596
b 362 570 566 537 499 562 596
b 363 566 540 537 499 562 596 660 565
b 364 540 537 499 414 436 386 363 562 596 660 565 485
b 365 537 499 414 436 386 363 298 261 509 562 596 660 565 485 267 325 497 351
b 366 436 386 363 298 261 275 260 170 126 109 79 90 24 509 562 596 660 565 485 448 373 341 788 53 94 201 267 325 497 351
b 367 275 260 170 126 109 79 90 24 509 562 596 660 565 485 448 373 341 316 315 246 284 287 205 171 122 45 799 786 391 202 69 446 3 491 788 53 94 201 267 325 497 351
b 368 286 249 300 326 318
b 369 249 221 300 326 318 229
b 370 221 300 326 318 205 171 229
b 371 296 300 311 343 287
b 372 352 366 311 364 343
b 373 366 368 311 326 427 364 343
b 374 368 355 311 326 382 427 364 343
b 375 355 311 326 318 382 427 364 343
b 376 300 311 326 318 343 287 205 171 229
b 377 311 326 318 382 427 364 343 287 205 171 229
b 378 374 418 381 318 264 360
b 379 418 381 422 318 264 360 470
b 380 379 462 381 318 382
b 381 462 381 422 318 382 486 506
b 382 381 422 318 382 486 506 264 360 470
b 383 318 382 486 506 427 364 343 287 205 171 264 360 470 229
b 384 382 486 506 463 427 364 343 287 205 171 264 360 470 229
b 385 528 572 544 600 506 470 533
b 386 572 544 590 600 616 506 470 533
b 387 556 544 590 586 549 486
b 388 633 590 616 636 606 673 693
b 389 544 590 600 616 586 549 486 506 470 533
b 390 590 600 616 636 606 586 549 486 506 673 693 470 533
b 391 620 632 600 616 673 595
b 392 632 600 616 673 595 603 667
b 393 600 616 636 606 586 549 486 506 673 693 470 533 595 603 667
b 394 494 501 486 503 463
b 395 530 547 604 501 584 517
b 396 547 604 501 608 549 584 517
b 397 604 501 625 608 549 584 517 621
b 398 501 625 608 549 486 584 517 503 463 621
b 399 661 648 625 681 711 621
b 400 648 619 625 608 681 711 621
b 401 619 609 625 608 636 606 681 711 621
b 402 609 625 608 636 606 586 681 711 621
b 403 625 608 636 606 586 549 486 584 517 503 463 681 711 621
b 404 636 606 586 549 486 506 584 517 503 463 673 693 681 711 621 470 533 595 603 667
b 405 486 506 584 517 503 463 427 364 343 673 693 681 711 621 287 205 171 264 360 470 533 595 603 667 229
b 406 314 330 305 399 343 284
b 407 330 305 399 403 371 343 315 246 284
b 408 479 440 492 503 463 427
b 409 440 394 419 492 503 463 427 364
b 410 394 419 399 492 503 463 427 364 343
b 411 426 433 403 464 442 371
b 412 433 429 403 492 464 442 371
b 413 429 419 399 403 492 464 442 371
b 414 419 399 403 492 464 442 371 503 463 427 364 343
b 415 399 403 492 464 442 371 503 463 427 364 343 315 246 284
b 416 500 515 536 492 529 464
b 417 515 536 492 529 464 517 503
b 418 560 575 585 536 529
b 419 592 575 585 584 621
b 420 575 585 536 529 584 621
b 421 585 536 598 529 584 621 663
b 422 536 492 598 529 464 584 517 503 621 663
b 423 492 598 529 464 442 371 584 517 503 463 427 364 343 621 663 315 246 284
b 424 365 372 425 373 341
b 425 372 384 425 373 341 316
b 426 384 415 455 425 373 341 316
b 427 423 431 415 442 371
b 428 431 432 415 454 442 371
b 429 432 415 454 455 442 371
b 430 415 454 455 425 442 371 373 341 316 315
b 431 493 476 521 520 477 454 442
b 432 476 521 520 477 454 529 464 442
b 433 521 520 477 454 598 529 464 442
b 434 483 539 520 477 425 516 448 373
b 435 561 568 539 520 598 617
b 436 568 539 520 598 617 577
b 437 539 520 477 425 598 617 577 516 448 373
b 438 520 477 454 425 598 529 464 442 617 577 516 448 373
b 439 477 454 455 425 598 529 464 442 617 577 516 448 373
b 440 454 455 425 598 529 464 442 371 617 577 516 448 373 341 316 315
b 441 598 529 464 442 371 584 517 503 463 427 364 343 621 663 617 577 516 448 373 341 316 315 246 284
b 442 584 517 503 463 427 364 343 673 693 681 711 621 663 617 577 516 448 373 341 316 315 246 284 287 205 171 264 360 470 533 595 603 667 229
b 443 550 567 548 577 516 448
b 444 567 548 576 577 516 448
b 445 555 548 574 581 576 565 485
b 446 548 574 581 576 577 516 565 485 448
b 447 582 628 574 581 660 565
b 448 628 647 574 581 576 660 565
b 449 647 574 581 576 678 677 701 660 565
b 450 574 581 576 678 677 701 577 516 660 565 485 448
b 451 652 683 687 678 663 617 577
b 452 694 709 689 683 695 717 678
b 453 709 689 683 695 717 678 677 729 701
b 454 683 687 695 717 678 677 729 701 663 617 577
b 455 692 705 726 720 687 695 663
b 456 705 726 720 687 695 732 711 621 663
b 457 741 762 726 720 717 753 729
b 458 762 726 720 717 753 766 729
b 459 726 720 687 695 717 732 753 766 729 711 621 663
b 460 687 695 717 678 677 732 753 766 729 701 711 621 663 617 577
b 461 678 677 732 753 766 729 701 711 621 663 617 577 516 660 565 485 448
b 462 763 751 769 755 732 753 778 766
b 463 751 739 769 755 732 753 778 766
b 464 739 769 755 734 732 753 778 766 711
b 465 703 742 734 693 681 711
b 466 774 759 769 764 775 778
b 467 759 745 742 769 755 734 764 775 778
b 468 745 742 769 755 734 733 764 775 778
b 469 742 769 755 734 733 764 775 778 693 681 711
b 470 769 755 734 733 764 732 753 775 778 766 693 681 711
b 471 716 744 718 733 673 667
b 472 744 718 748 733 764 673 667
b 473 754 760 718 748 775 715 752
b 474 760 718 748 775 715 752 772
b 475 718 748 733 764 775 673 667 715 752 772
b 476 733 764 732 753 775 778 766 673 693 681 711 667 715 752 772
b 477 732 753 775 778 766 729 701 673 693 681 711 621 663 617 577 516 660 565 485 448 667 715 752 772
b 478 704 719 688 710 701 660
b 479 719 688 736 710 729 701 660
b 480 686 666 688 696 650 690
b 481 666 688 696 650 690 596 660
b 482 688 736 710 696 650 690 729 701 596 660
b 483 737 722 712 736 771 761
b 484 722 712 736 710 696 771 761
b 485 699 706 712 690 685
b 486 706 712 690 740 685
b 487 712 736 710 696 690 771 761 740 685
b 488 736 710 696 650 690 771 761 740 685 729 701 596 660
b 489 531 597 593 509 505 497
b 490 618 653 597 593 685 627
b 491 653 597 593 650 690 685 627
b 492 597 593 650 690 685 627 509 562 505 497
b 493 593 650 690 685 627 509 562 573 505 497
b 494 650 690 771 761 740 685 627 729 701 509 562 596 660 573 505 497
b 495 651 707 685 627 656 610
b 496 707 708 725 685 627 698 656 610
b 497 731 727 728 758 750 725
b 498 723 727 728 708 725
b 499 727 728 708 758 750 725 756 698
b 500 708 758 750 725 685 627 756 698 656 610
b 501 749 767 750 761 740
b 502 765 767 776 771 761
b 503 767 777 776 758 750 771 761 740
b 504 777 776 758 750 771 761 740 775 778 772 756
b 505 770 773 776 771 766 729
b 506 773 776 771 778 766 729
b 507 776 758 750 771 761 740 775 778 766 729 772 756
b 508 758 750 725 771 761 740 685 627 775 778 766 729 772 756 698 656 610
b 509 771 761 740 685 627 775 778 766 729 701 509 562 596 660 772 756 698 656 610 573 505 497
b 510 775 778 766 729 701 673 693 681 711 621 663 617 577 516 509 562 596 660 565 485 448 667 715 752 772 756 698 656 610 573 505 497
b 511 673 693 681 711 621 663 617 577 516 509 562 596 660 565 485 448 373 341 316 315 246 284 287 205 171 264 360 470 533 595 603 667 715 752 772 756 698 656 610 573 505 497 229
b 512 509 562 596 660 565 485 448 373 341 316 315 246 284 287 205 171 122 45 799 786 391 202 69 446 3 491 788 53 94 201 267 325 264 360 470 533 595 603 667 715 752 772 756 698 656 610 573 505 497 229 351
1 3
3 7
7 18
18 65
65 131
131 248
248 512
512 367
512 511
248 247
511 442
247 193
511 510
131 130
367 306
367 366
130 129
193 172
306 280
442 405
366 341
510 477
65 64
130 96
247 246
442 441
246 245
96 95
510 509
172 171
280 265
441 423
306 305
172 152
280 279
405 404
341 340
64 63
246 218
366 365
129 115
129 128
477 461
64 39
96 79
245 244
171 170
63 51
193 192
341 321
509 508
509 494
152 143
340 330
63 62
218 206
192 182
321 320
143 142
405 384
477 476
18 17
441 440
305 293
152 151
404 393
128 122
384 383
393 390
245 228
95 90
265 264
423 415
305 304
279 270
404 403
365 354
115 114
461 460
244 237
206 205
440 439
439 438
415 414
90 89
89 83
171 157
265 256
365 364
39 38
39 27
27 26
244 243
170 169
192 191
169 168
508 507
62 61
17 14
460 454
460 459
228 222
264 263
304 297
114 108
38 32
507 504
354 353
218 217
128 127
79 74
79 78
51 50
494 488
330 326
206 197
320 314
142 137
476 470
137 136
470 469
293 288
151 147
114 113
205 201
438 437
157 156
256 255
26 22
61 60
263 262
297 296
108 107
228 227
74 70
78 77
122 119
488 482
390 389
326 325
383 377
403 398
201 200
227 226
423 422
340 337
461 450
170 164
508 500
494 493
493 492
182 176
440 430
304 303
270 269
403 402
354 344
237 236
237 232
414 410
157 154
364 360
38 37
191 187
191 190
168 167
14 13
459 456
217 216
50 47
488 487
197 196
122 121
470 464
469 468
255 254
22 21
325 324
314 313
377 376
450 446
450 449
164 163
264 259
269 268
402 401
344 343
37 36
216 215
468 467
163 162
36 35
95 94
279 278
115 101
51 43
62 56
182 181
320 319
142 141
476 475
383 382
90 88
415 407
270 267
205 204
438 433
414 413
256 251
364 363
168 166
61 58
454 453
222 221
32 29
504 503
353 348
217 212
127 124
136 135
288 284
113 112
437 434
60 59
262 261
296 295
107 106
70 69
119 117
389 386
377 375
398 397
337 334
337 336
500 496
176 174
410 409
190 189
464 463
254 253
21 20
94 93
278 274
215 214
56 55
319 315
88 87
204 203
433 432
221 220
29 28
106 105
375 374
353 352
334 333
336 335
463 462
87 86
203 202
352 351
351 349
7 6
151 150
393 392
475 474
390 388
3 2
83 80
83 82
26 25
243 241
243 238
14 9
454 451
459 458
127 126
74 73
288 287
147 145
113 110
156 155
482 479
482 481
200 198
226 225
422 417
422 421
500 499
492 491
176 175
430 426
303 300
236 234
236 235
232 231
154 153
360 356
360 359
187 186
187 184
456 455
47 44
487 484
196 195
121 120
324 323
313 312
376 370
446 445
259 257
401 400
162 161
278 277
101 99
43 41
181 178
319 318
141 140
475 472
382 379
382 381
267 266
413 412
251 250
58 57
453 452
348 347
212 211
135 134
284 283
449 448
69 68
117 116
386 385
397 396
174 173
93 92
274 273
55 54
432 431
105 104
374 373
333 332
86 85
6 5
474 473
458 457
73 72
287 286
300 298
356 355
184 183
41 40
200 199
211 210
72 71
330 329
17 16
16 15
293 292
292 290
507 506
32 31
50 49
197 194
314 309
136 133
469 465
147 146
437 436
77 76
77 75
119 118
389 387
164 159
492 489
430 429
303 302
302 301
232 230
167 165
13 10
13 12
47 46
446 444
467 466
343 342
101 100
407 406
363 362
348 345
212 208
124 123
112 111
261 260
295 294
496 495
409 408
214 213
220 219
150 148
150 149
392 391
82 81
25 23
25 24
241 240
9 8
126 125
145 144
479 478
481 480
417 416
421 420
499 497
491 490
426 425
300 299
359 358
186 185
484 483
312 311
370 369
400 399
161 160
178 177
318 316
318 317
140 139
472 471
250 249
347 346
283 282
448 447
68 67
396 395
273 271
273 272
54 52
104 103
332 331
5 4
412 411
286 285
31 30
379 378
506 505
49 48
210 209
133 132
290 289
436 435
159 158
259 258
429 428
230 229
444 443
362 361
208 207
240 239
358 357
311 310
282 281
292 291
243 242
329 328
329 327
326 322
398 394
487 486
486 485
376 371
35 33
43 42
181 179
88 84
503 501
503 502
189 188
253 252
20 19
110 109
225 224
225 223
499 498
234 233
277 276
99 98
381 380
35 34
373 372
309 308
308 307
12 11
46 45
420 419
420 418
425 424
98 97
369 368
139 138
103 102
428 427
340 338
338 339
181 180
55 53
68 66
92 91
276 275
351 350
